DIMENSION: 22
EDGE_WEIGHT_TYPE: EXPLICIT
EDGE_WEIGHT_FORMAT: FULL_MATRIX
EDGE_WEIGHT_SECTION:
32767 32767 32767 32767 32767 24 32767 32767 32767 32767 11 32767 32767 16 41 32767 32767 15 32767 32767 27 32767 
32767 32767 32767 32767 8 69 32767 32767 32767 32767 54 32767 80 32767 32767 31 32767 32767 32767 86 71 32767 
32767 32767 32767 32767 32767 99 32 2 32767 32767 32767 32767 32767 32767 32767 36 32767 32767 32767 24 32767 32767 
32767 32767 32767 32767 41 32767 32767 20 32767 91 32767 32767 32767 32767 32767 32767 32767 32767 32767 32767 40 49 
32767 8 32767 41 32767 32767 32767 63 32767 34 32767 26 26 32767 66 32767 32767 1 32767 32767 32767 32767 
24 69 99 32767 32767 32767 32767 32767 89 32767 32767 3 32767 32767 4 32767 89 92 32767 18 32767 32767 
32767 32767 32 32767 32767 32767 32767 83 98 84 32767 32767 33 40 32767 32767 32767 32767 32767 32767 32767 32767 
32767 32767 2 20 63 32767 83 32767 32767 32767 32767 18 55 32767 50 21 32767 32767 32767 32767 32767 32 
32767 32767 32767 32767 32767 89 98 32767 32767 32767 32767 32767 32767 32767 32767 32767 32767 93 32767 32767 32767 32767 
32767 32767 32767 91 34 32767 84 32767 32767 32767 32767 32767 32767 32767 32767 32767 86 32767 32767 32767 17 10 
11 54 32767 32767 32767 32767 32767 32767 32767 32767 32767 32767 32767 25 4 86 32767 32767 32767 32767 32767 32767 
32767 32767 32767 32767 26 3 32767 18 32767 32767 32767 32767 32767 32767 69 32767 5 32767 43 32767 32767 32767 
32767 80 32767 32767 26 32767 33 55 32767 32767 32767 32767 32767 32767 32767 32767 14 42 32767 32767 33 32767 
16 32767 32767 32767 32767 32767 40 32767 32767 32767 25 32767 32767 32767 32767 32767 32767 32767 30 32767 82 12 
41 32767 32767 32767 66 4 32767 50 32767 32767 4 69 32767 32767 32767 32767 43 99 32767 32767 32767 32767 
32767 31 36 32767 32767 32767 32767 21 32767 32767 86 32767 32767 32767 32767 32767 62 32767 79 48 32767 32 
32767 32767 32767 32767 32767 89 32767 32767 32767 86 32767 5 14 32767 43 62 32767 32767 32767 32767 17 63 
15 32767 32767 32767 1 92 32767 32767 93 32767 32767 32767 42 32767 99 32767 32767 32767 32767 32767 32767 32767 
32767 32767 32767 32767 32767 32767 32767 32767 32767 32767 32767 43 32767 30 32767 79 32767 32767 32767 32767 32767 32767 
32767 86 24 32767 32767 18 32767 32767 32767 32767 32767 32767 32767 32767 32767 48 32767 32767 32767 32767 32767 32767 
27 71 32767 40 32767 32767 32767 32767 32767 17 32767 32767 33 82 32767 32767 17 32767 32767 32767 32767 32767 
32767 32767 32767 49 32767 32767 32767 32 32767 10 32767 32767 32767 12 32767 32 63 32767 32767 32767 32767 32767 
EOF